0 0 0 0
0 1 0 0
0 2 0 0
0 3 0 2
0 4 0 6
0 5 0 1
0 6 0 1
0 7 0 10
0 8 0 2
0 9 0 27
0 10 0 23
0 11 0 17
0 12 0 31
0 13 0 78
0 14 0 8
0 15 0 9
0 16 0 27
0 17 0 13
0 18 0 41
0 19 0 47
0 20 0 20
0 21 0 17
0 22 0 26
0 23 0 53
0 24 0 33
0 25 0 36
0 26 0 13
0 27 0 13
0 28 0 60
0 29 0 41
0 30 0 33
0 31 0 23
0 32 0 35
0 33 0 41
0 34 0 92
0 35 0 66
0 36 0 61
0 37 0 33
0 38 0 67
0 39 0 16
0 40 0 53
0 41 0 68
0 42 0 73
0 43 0 43
0 44 0 43
0 45 0 47
0 46 0 16
0 47 0 73
0 48 0 51
0 49 0 51
0 50 0 47
0 51 0 69
0 52 0 77
0 53 0 94
0 54 0 68
0 55 0 66
0 56 0 75
0 57 0 85
0 58 0 85
0 59 0 78
0 60 0 75
0 61 0 78
0 62 0 102
0 63 0 60
0 64 0 85
0 65 0 86
0 66 0 73
0 67 0 61
0 68 0 93
0 69 0 94
0 70 0 69
0 71 0 94
0 72 0 104
0 73 0 114
0 74 0 104
0 75 0 109
0 76 0 115
0 77 0 111
0 78 0 87
0 79 0 92
0 80 0 102
0 81 0 105
0 82 0 118
0 83 0 108
0 84 0 117
0 85 0 120
0 86 0 114
0 87 0 107
0 88 0 119
0 89 0 124
0 90 0 115
0 91 0 125
